36279 41791 
37999 41087 
36052 41869 
36897 41631 
38567 40827 
35876 41909 
36430 41780 
35990 41896 
35490 42026 
37465 41371 
35814 41936 
37174 41497 
36244 41802 
35428 42053 
36168 41816 
38221 40979 
